GeneratedInstances/LBS19_65.param
$ LBS instance with n = 19, seed = 65
letting cards be [40,29,13,43,10,48,35,20,26,36,9,19,27,11,17,44,45,24,18]
